GLPSOL: GLPK LP/MIP Solver, v4.65
Parameter(s) specified in the command line:
 -m helloworld-int.mod --log helloworld-int.log
Reading model section from helloworld-int.mod...
20 lines were read
Generating Con1...
Generating Con2...
Generating Con3...
Generating Sum...
Model has been successfully generated
GLPK Integer Optimizer, v4.65
4 rows, 3 columns, 9 non-zeros
3 integer variables, none of which are binary
Preprocessing...
3 rows, 3 columns, 6 non-zeros
3 integer variables, none of which are binary
Scaling...
 A: min|aij| =  1.000e+00  max|aij| =  1.000e+00  ratio =  1.000e+00
Problem data seem to be well scaled
Constructing initial basis...
Size of triangular part is 3
Solving LP relaxation...
GLPK Simplex Optimizer, v4.65
3 rows, 3 columns, 6 non-zeros
*     0: obj =  -0.000000000e+00 inf =   0.000e+00 (3)
*     4: obj =   7.500000000e+00 inf =   0.000e+00 (0)
OPTIMAL LP SOLUTION FOUND
Integer optimization begins...
Long-step dual simplex will be used
+     4: mip =     not found yet <=              +inf        (1; 0)
+     6: >>>>>   7.000000000e+00 <=   7.000000000e+00   0.0% (2; 0)
+     6: mip =   7.000000000e+00 <=     tree is empty   0.0% (0; 3)
INTEGER OPTIMAL SOLUTION FOUND
Time used:   0.0 secs
Memory used: 0.1 Mb (124952 bytes)
Optimal (max) sum is: 7.
x = 1
y = 2
z = 4
Model has been successfully processed
